\ This file has been generated by DOcplex
\ ENCODING=ISO-8859-1
\Problem name: Manuver Model

Minimize
 obj: PriceProv1 + PriceProv2 + PriceProv3 + PriceProv4 + PriceProv5
Subject To
 c0_vm_allocated: vm1 = 1 <-> C1_VM1 + C2_VM1 + C3_VM1 + C4_VM1 + C5_VM1 >= 1
 c1_vm_allocated: vm2 = 1 <-> C1_VM2 + C2_VM2 + C3_VM2 + C4_VM2 + C5_VM2 >= 1
 c2_vm_allocated: vm3 = 1 <-> C1_VM3 + C2_VM3 + C3_VM3 + C4_VM3 + C5_VM3 >= 1
 c3_vm_allocated: vm4 = 1 <-> C1_VM4 + C2_VM4 + C3_VM4 + C4_VM4 + C5_VM4 >= 1
 c4_vm_allocated: vm5 = 1 <-> C1_VM5 + C2_VM5 + C3_VM5 + C4_VM5 + C5_VM5 >= 1
 c0_vm_free_price_0: vm1 = 0 -> PriceProv1 = 0
 c1_vm_free_price_0: vm2 = 0 -> PriceProv2 = 0
 c2_vm_free_price_0: vm3 = 0 -> PriceProv3 = 0
 c3_vm_free_price_0: vm4 = 0 -> PriceProv4 = 0
 c4_vm_free_price_0: vm5 = 0 -> PriceProv5 = 0
 c_vm_load_lex_order: C1_VM1 + C2_VM1 + C3_VM1 + C4_VM1 + C5_VM1 - C1_VM2
                      - C2_VM2 - C3_VM2 - C4_VM2 - C5_VM2 >= 0
 c_vm_load_lex_order#1: C1_VM2 + C2_VM2 + C3_VM2 + C4_VM2 + C5_VM2 - C1_VM3
                        - C2_VM3 - C3_VM3 - C4_VM3 - C5_VM3 >= 0
 c_vm_load_lex_order#2: C1_VM3 + C2_VM3 + C3_VM3 + C4_VM3 + C5_VM3 - C1_VM4
                        - C2_VM4 - C3_VM4 - C4_VM4 - C5_VM4 >= 0
 c_vm_load_lex_order#3: C1_VM4 + C2_VM4 + C3_VM4 + C4_VM4 + C5_VM4 - C1_VM5
                        - C2_VM5 - C3_VM5 - C4_VM5 - C5_VM5 >= 0
 c_comp_conflict: C1_VM1 + C2_VM1 <= 1
 c_comp_conflict#5: C1_VM1 + C3_VM1 <= 1
 c_comp_conflict#6: C1_VM1 + C4_VM1 <= 1
 c_comp_conflict#7: C1_VM1 + C5_VM1 <= 1
 c_comp_conflict#8: C1_VM2 + C2_VM2 <= 1
 c_comp_conflict#9: C1_VM2 + C3_VM2 <= 1
 c_comp_conflict#10: C1_VM2 + C4_VM2 <= 1
 c_comp_conflict#11: C1_VM2 + C5_VM2 <= 1
 c_comp_conflict#12: C1_VM3 + C2_VM3 <= 1
 c_comp_conflict#13: C1_VM3 + C3_VM3 <= 1
 c_comp_conflict#14: C1_VM3 + C4_VM3 <= 1
 c_comp_conflict#15: C1_VM3 + C5_VM3 <= 1
 c_comp_conflict#16: C1_VM4 + C2_VM4 <= 1
 c_comp_conflict#17: C1_VM4 + C3_VM4 <= 1
 c_comp_conflict#18: C1_VM4 + C4_VM4 <= 1
 c_comp_conflict#19: C1_VM4 + C5_VM4 <= 1
 c_comp_conflict#20: C1_VM5 + C2_VM5 <= 1
 c_comp_conflict#21: C1_VM5 + C3_VM5 <= 1
 c_comp_conflict#22: C1_VM5 + C4_VM5 <= 1
 c_comp_conflict#23: C1_VM5 + C5_VM5 <= 1
 c_comp_conflict#24: C3_VM1 + C5_VM1 <= 1
 c_comp_conflict#25: C4_VM1 + C5_VM1 <= 1
 c_comp_conflict#26: C3_VM2 + C5_VM2 <= 1
 c_comp_conflict#27: C4_VM2 + C5_VM2 <= 1
 c_comp_conflict#28: C3_VM3 + C5_VM3 <= 1
 c_comp_conflict#29: C4_VM3 + C5_VM3 <= 1
 c_comp_conflict#30: C3_VM4 + C5_VM4 <= 1
 c_comp_conflict#31: C4_VM4 + C5_VM4 <= 1
 c_comp_conflict#32: C3_VM5 + C5_VM5 <= 1
 c_comp_conflict#33: C4_VM5 + C5_VM5 <= 1
 c_upper_lower_bound: C1_VM1 + C1_VM2 + C1_VM3 + C1_VM4 + C1_VM5 = 1
 c_upper_lower_bound#35: C5_VM1 + C5_VM2 + C5_VM3 + C5_VM4 + C5_VM5 = 1
 c_upper_lower_bound#36: C1_VM1 + C1_VM2 + C1_VM3 + C1_VM4 + C1_VM5 >= 1
 c_upper_lower_bound#37: C2_VM1 + C2_VM2 + C2_VM3 + C2_VM4 + C2_VM5 >= 1
 c_upper_lower_bound#38: C3_VM1 + C3_VM2 + C3_VM3 + C3_VM4 + C3_VM5 >= 1
 c_upper_lower_bound#39: C4_VM1 + C4_VM2 + C4_VM3 + C4_VM4 + C4_VM5 >= 1
 c_upper_lower_bound#40: C5_VM1 + C5_VM2 + C5_VM3 + C5_VM4 + C5_VM5 >= 1
 c_hard_cpu: 4 C1_VM1 + 2 C2_VM1 + 4 C3_VM1 + 2 C4_VM1 + 4 C5_VM1 - ProcProv1
              <= 0
 c_hard_mem: 4096 C1_VM1 + 2048 C2_VM1 + 4096 C3_VM1 + 512 C4_VM1 + 2048 C5_VM1
             - MemProv1 <= 0
 c_hard_storage: 1024 C1_VM1 + 512 C2_VM1 + 512 C3_VM1 + 2000 C4_VM1
                 + 500 C5_VM1 - StorageProv1 <= 0
 c_hard_cpu#44: 4 C1_VM2 + 2 C2_VM2 + 4 C3_VM2 + 2 C4_VM2 + 4 C5_VM2 - ProcProv2
                 <= 0
 c_hard_mem#45: 4096 C1_VM2 + 2048 C2_VM2 + 4096 C3_VM2 + 512 C4_VM2
                + 2048 C5_VM2 - MemProv2 <= 0
 c_hard_storage#46: 1024 C1_VM2 + 512 C2_VM2 + 512 C3_VM2 + 2000 C4_VM2
                    + 500 C5_VM2 - StorageProv2 <= 0
 c_hard_cpu#47: 4 C1_VM3 + 2 C2_VM3 + 4 C3_VM3 + 2 C4_VM3 + 4 C5_VM3 - ProcProv3
                 <= 0
 c_hard_mem#48: 4096 C1_VM3 + 2048 C2_VM3 + 4096 C3_VM3 + 512 C4_VM3
                + 2048 C5_VM3 - MemProv3 <= 0
 c_hard_storage#49: 1024 C1_VM3 + 512 C2_VM3 + 512 C3_VM3 + 2000 C4_VM3
                    + 500 C5_VM3 - StorageProv3 <= 0
 c_hard_cpu#50: 4 C1_VM4 + 2 C2_VM4 + 4 C3_VM4 + 2 C4_VM4 + 4 C5_VM4 - ProcProv4
                 <= 0
 c_hard_mem#51: 4096 C1_VM4 + 2048 C2_VM4 + 4096 C3_VM4 + 512 C4_VM4
                + 2048 C5_VM4 - MemProv4 <= 0
 c_hard_storage#52: 1024 C1_VM4 + 512 C2_VM4 + 512 C3_VM4 + 2000 C4_VM4
                    + 500 C5_VM4 - StorageProv4 <= 0
 c_hard_cpu#53: 4 C1_VM5 + 2 C2_VM5 + 4 C3_VM5 + 2 C4_VM5 + 4 C5_VM5 - ProcProv5
                 <= 0
 c_hard_mem#54: 4096 C1_VM5 + 2048 C2_VM5 + 4096 C3_VM5 + 512 C4_VM5
                + 2048 C5_VM5 - MemProv5 <= 0
 c_hard_storage#55: 1024 C1_VM5 + 512 C2_VM5 + 512 C3_VM5 + 2000 C4_VM5
                    + 500 C5_VM5 - StorageProv5 <= 0
 lc11: aux_hard1 = 1 <-> vmType1 = 1
 c_order_vm_price: aux_hard1 = 1 -> PriceProv1 = 8403
 c_order_vm_cpu: aux_hard1 = 1 -> ProcProv1 = 64
 c_order_vm_memory: aux_hard1 = 1 -> MemProv1 = 976000
 c_order_vm_storage: aux_hard1 = 1 -> StorageProv1 = 1000
 lc16: aux_hard2 = 1 <-> vmType1 = 2
 c_order_vm_price#16: aux_hard2 = 1 -> PriceProv1 = 9152
 c_order_vm_cpu#17: aux_hard2 = 1 -> ProcProv1 = 64
 c_order_vm_memory#18: aux_hard2 = 1 -> MemProv1 = 488000
 c_order_vm_storage#19: aux_hard2 = 1 -> StorageProv1 = 8000
 lc21: aux_hard3 = 1 <-> vmType1 = 3
 c_order_vm_price#21: aux_hard3 = 1 -> PriceProv1 = 16000
 c_order_vm_cpu#22: aux_hard3 = 1 -> ProcProv1 = 64
 c_order_vm_memory#23: aux_hard3 = 1 -> MemProv1 = 1952
 c_order_vm_storage#24: aux_hard3 = 1 -> StorageProv1 = 1000
 lc26: aux_hard4 = 1 <-> vmType1 = 4
 c_order_vm_price#26: aux_hard4 = 1 -> PriceProv1 = 4105
 c_order_vm_cpu#27: aux_hard4 = 1 -> ProcProv1 = 32
 c_order_vm_memory#28: aux_hard4 = 1 -> MemProv1 = 244000
 c_order_vm_storage#29: aux_hard4 = 1 -> StorageProv1 = 2000
 lc31: aux_hard5 = 1 <-> vmType1 = 5
 c_order_vm_price#31: aux_hard5 = 1 -> PriceProv1 = 4576
 c_order_vm_cpu#32: aux_hard5 = 1 -> ProcProv1 = 32
 c_order_vm_memory#33: aux_hard5 = 1 -> MemProv1 = 244000
 c_order_vm_storage#34: aux_hard5 = 1 -> StorageProv1 = 4000
 lc36: aux_hard6 = 1 <-> vmType1 = 6
 c_order_vm_price#36: aux_hard6 = 1 -> PriceProv1 = 1373
 c_order_vm_cpu#37: aux_hard6 = 1 -> ProcProv1 = 16
 c_order_vm_memory#38: aux_hard6 = 1 -> MemProv1 = 122000
 c_order_vm_storage#39: aux_hard6 = 1 -> StorageProv1 = 2000
 lc41: aux_hard7 = 1 <-> vmType1 = 7
 c_order_vm_price#41: aux_hard7 = 1 -> PriceProv1 = 1430
 c_order_vm_cpu#42: aux_hard7 = 1 -> ProcProv1 = 16
 c_order_vm_memory#43: aux_hard7 = 1 -> MemProv1 = 30000
 c_order_vm_storage#44: aux_hard7 = 1 -> StorageProv1 = 2000
 lc46: aux_hard8 = 1 <-> vmType1 = 8
 c_order_vm_price#46: aux_hard8 = 1 -> PriceProv1 = 5400
 c_order_vm_cpu#47: aux_hard8 = 1 -> ProcProv1 = 17
 c_order_vm_memory#48: aux_hard8 = 1 -> MemProv1 = 117000
 c_order_vm_storage#49: aux_hard8 = 1 -> StorageProv1 = 24000
 lc51: aux_hard9 = 1 <-> vmType1 = 9
 c_order_vm_price#51: aux_hard9 = 1 -> PriceProv1 = 3079
 c_order_vm_cpu#52: aux_hard9 = 1 -> ProcProv1 = 16
 c_order_vm_memory#53: aux_hard9 = 1 -> MemProv1 = 122000
 c_order_vm_storage#54: aux_hard9 = 1 -> StorageProv1 = 1000
 lc56: aux_hard10 = 1 <-> vmType1 = 10
 c_order_vm_price#56: aux_hard10 = 1 -> PriceProv1 = 1470
 c_order_vm_cpu#57: aux_hard10 = 1 -> ProcProv1 = 8
 c_order_vm_memory#58: aux_hard10 = 1 -> MemProv1 = 61000
 c_order_vm_storage#59: aux_hard10 = 1 -> StorageProv1 = 6000
 lc61: aux_hard11 = 1 <-> vmType1 = 11
 c_order_vm_price#61: aux_hard11 = 1 -> PriceProv1 = 1301
 c_order_vm_cpu#62: aux_hard11 = 1 -> ProcProv1 = 8
 c_order_vm_memory#63: aux_hard11 = 1 -> MemProv1 = 68400
 c_order_vm_storage#64: aux_hard11 = 1 -> StorageProv1 = 2000
 lc66: aux_hard12 = 1 <-> vmType1 = 12
 c_order_vm_price#66: aux_hard12 = 1 -> PriceProv1 = 1288
 c_order_vm_cpu#67: aux_hard12 = 1 -> ProcProv1 = 8
 c_order_vm_memory#68: aux_hard12 = 1 -> MemProv1 = 68400
 c_order_vm_storage#69: aux_hard12 = 1 -> StorageProv1 = 2000
 lc71: aux_hard13 = 1 <-> vmType1 = 13
 c_order_vm_price#71: aux_hard13 = 1 -> PriceProv1 = 402
 c_order_vm_cpu#72: aux_hard13 = 1 -> ProcProv1 = 4
 c_order_vm_memory#73: aux_hard13 = 1 -> MemProv1 = 15000
 c_order_vm_storage#74: aux_hard13 = 1 -> StorageProv1 = 2000
 lc76: aux_hard14 = 1 <-> vmType1 = 14
 c_order_vm_price#76: aux_hard14 = 1 -> PriceProv1 = 827
 c_order_vm_cpu#77: aux_hard14 = 1 -> ProcProv1 = 4
 c_order_vm_memory#78: aux_hard14 = 1 -> MemProv1 = 30500
 c_order_vm_storage#79: aux_hard14 = 1 -> StorageProv1 = 3000
 lc81: aux_hard15 = 1 <-> vmType1 = 15
 c_order_vm_price#81: aux_hard15 = 1 -> PriceProv1 = 379
 c_order_vm_cpu#82: aux_hard15 = 1 -> ProcProv1 = 4
 c_order_vm_memory#83: aux_hard15 = 1 -> MemProv1 = 30500
 c_order_vm_storage#84: aux_hard15 = 1 -> StorageProv1 = 1000
 lc86: aux_hard16 = 1 <-> vmType1 = 16
 c_order_vm_price#86: aux_hard16 = 1 -> PriceProv1 = 146
 c_order_vm_cpu#87: aux_hard16 = 1 -> ProcProv1 = 2
 c_order_vm_memory#88: aux_hard16 = 1 -> MemProv1 = 7500
 c_order_vm_storage#89: aux_hard16 = 1 -> StorageProv1 = 1000
 lc91: aux_hard17 = 1 <-> vmType1 = 17
 c_order_vm_price#91: aux_hard17 = 1 -> PriceProv1 = 128
 c_order_vm_cpu#92: aux_hard17 = 1 -> ProcProv1 = 2
 c_order_vm_memory#93: aux_hard17 = 1 -> MemProv1 = 3750
 c_order_vm_storage#94: aux_hard17 = 1 -> StorageProv1 = 2000
 lc96: aux_hard18 = 1 <-> vmType1 = 18
 c_order_vm_price#96: aux_hard18 = 1 -> PriceProv1 = 58
 c_order_vm_cpu#97: aux_hard18 = 1 -> ProcProv1 = 1
 c_order_vm_memory#98: aux_hard18 = 1 -> MemProv1 = 1700
 c_order_vm_storage#99: aux_hard18 = 1 -> StorageProv1 = 1000
 lc101: aux_hard19 = 1 <-> vmType1 = 19
 c_order_vm_price#101: aux_hard19 = 1 -> PriceProv1 = 93
 c_order_vm_cpu#102: aux_hard19 = 1 -> ProcProv1 = 1
 c_order_vm_memory#103: aux_hard19 = 1 -> MemProv1 = 3750
 c_order_vm_storage#104: aux_hard19 = 1 -> StorageProv1 = 1000
 lc106: aux_hard20 = 1 <-> vmType1 = 20
 c_order_vm_price#106: aux_hard20 = 1 -> PriceProv1 = 98
 c_order_vm_cpu#107: aux_hard20 = 1 -> ProcProv1 = 1
 c_order_vm_memory#108: aux_hard20 = 1 -> MemProv1 = 3750
 c_order_vm_storage#109: aux_hard20 = 1 -> StorageProv1 = 1000
 lc111: vm1 = 1 -> vmType1 >= 1
 lc112: aux_hard21 = 1 <-> vmType2 = 1
 c_order_vm_price#112: aux_hard21 = 1 -> PriceProv2 = 8403
 c_order_vm_cpu#113: aux_hard21 = 1 -> ProcProv2 = 64
 c_order_vm_memory#114: aux_hard21 = 1 -> MemProv2 = 976000
 c_order_vm_storage#115: aux_hard21 = 1 -> StorageProv2 = 1000
 lc117: aux_hard22 = 1 <-> vmType2 = 2
 c_order_vm_price#117: aux_hard22 = 1 -> PriceProv2 = 9152
 c_order_vm_cpu#118: aux_hard22 = 1 -> ProcProv2 = 64
 c_order_vm_memory#119: aux_hard22 = 1 -> MemProv2 = 488000
 c_order_vm_storage#120: aux_hard22 = 1 -> StorageProv2 = 8000
 lc122: aux_hard23 = 1 <-> vmType2 = 3
 c_order_vm_price#122: aux_hard23 = 1 -> PriceProv2 = 16000
 c_order_vm_cpu#123: aux_hard23 = 1 -> ProcProv2 = 64
 c_order_vm_memory#124: aux_hard23 = 1 -> MemProv2 = 1952
 c_order_vm_storage#125: aux_hard23 = 1 -> StorageProv2 = 1000
 lc127: aux_hard24 = 1 <-> vmType2 = 4
 c_order_vm_price#127: aux_hard24 = 1 -> PriceProv2 = 4105
 c_order_vm_cpu#128: aux_hard24 = 1 -> ProcProv2 = 32
 c_order_vm_memory#129: aux_hard24 = 1 -> MemProv2 = 244000
 c_order_vm_storage#130: aux_hard24 = 1 -> StorageProv2 = 2000
 lc132: aux_hard25 = 1 <-> vmType2 = 5
 c_order_vm_price#132: aux_hard25 = 1 -> PriceProv2 = 4576
 c_order_vm_cpu#133: aux_hard25 = 1 -> ProcProv2 = 32
 c_order_vm_memory#134: aux_hard25 = 1 -> MemProv2 = 244000
 c_order_vm_storage#135: aux_hard25 = 1 -> StorageProv2 = 4000
 lc137: aux_hard26 = 1 <-> vmType2 = 6
 c_order_vm_price#137: aux_hard26 = 1 -> PriceProv2 = 1373
 c_order_vm_cpu#138: aux_hard26 = 1 -> ProcProv2 = 16
 c_order_vm_memory#139: aux_hard26 = 1 -> MemProv2 = 122000
 c_order_vm_storage#140: aux_hard26 = 1 -> StorageProv2 = 2000
 lc142: aux_hard27 = 1 <-> vmType2 = 7
 c_order_vm_price#142: aux_hard27 = 1 -> PriceProv2 = 1430
 c_order_vm_cpu#143: aux_hard27 = 1 -> ProcProv2 = 16
 c_order_vm_memory#144: aux_hard27 = 1 -> MemProv2 = 30000
 c_order_vm_storage#145: aux_hard27 = 1 -> StorageProv2 = 2000
 lc147: aux_hard28 = 1 <-> vmType2 = 8
 c_order_vm_price#147: aux_hard28 = 1 -> PriceProv2 = 5400
 c_order_vm_cpu#148: aux_hard28 = 1 -> ProcProv2 = 17
 c_order_vm_memory#149: aux_hard28 = 1 -> MemProv2 = 117000
 c_order_vm_storage#150: aux_hard28 = 1 -> StorageProv2 = 24000
 lc152: aux_hard29 = 1 <-> vmType2 = 9
 c_order_vm_price#152: aux_hard29 = 1 -> PriceProv2 = 3079
 c_order_vm_cpu#153: aux_hard29 = 1 -> ProcProv2 = 16
 c_order_vm_memory#154: aux_hard29 = 1 -> MemProv2 = 122000
 c_order_vm_storage#155: aux_hard29 = 1 -> StorageProv2 = 1000
 lc157: aux_hard30 = 1 <-> vmType2 = 10
 c_order_vm_price#157: aux_hard30 = 1 -> PriceProv2 = 1470
 c_order_vm_cpu#158: aux_hard30 = 1 -> ProcProv2 = 8
 c_order_vm_memory#159: aux_hard30 = 1 -> MemProv2 = 61000
 c_order_vm_storage#160: aux_hard30 = 1 -> StorageProv2 = 6000
 lc162: aux_hard31 = 1 <-> vmType2 = 11
 c_order_vm_price#162: aux_hard31 = 1 -> PriceProv2 = 1301
 c_order_vm_cpu#163: aux_hard31 = 1 -> ProcProv2 = 8
 c_order_vm_memory#164: aux_hard31 = 1 -> MemProv2 = 68400
 c_order_vm_storage#165: aux_hard31 = 1 -> StorageProv2 = 2000
 lc167: aux_hard32 = 1 <-> vmType2 = 12
 c_order_vm_price#167: aux_hard32 = 1 -> PriceProv2 = 1288
 c_order_vm_cpu#168: aux_hard32 = 1 -> ProcProv2 = 8
 c_order_vm_memory#169: aux_hard32 = 1 -> MemProv2 = 68400
 c_order_vm_storage#170: aux_hard32 = 1 -> StorageProv2 = 2000
 lc172: aux_hard33 = 1 <-> vmType2 = 13
 c_order_vm_price#172: aux_hard33 = 1 -> PriceProv2 = 402
 c_order_vm_cpu#173: aux_hard33 = 1 -> ProcProv2 = 4
 c_order_vm_memory#174: aux_hard33 = 1 -> MemProv2 = 15000
 c_order_vm_storage#175: aux_hard33 = 1 -> StorageProv2 = 2000
 lc177: aux_hard34 = 1 <-> vmType2 = 14
 c_order_vm_price#177: aux_hard34 = 1 -> PriceProv2 = 827
 c_order_vm_cpu#178: aux_hard34 = 1 -> ProcProv2 = 4
 c_order_vm_memory#179: aux_hard34 = 1 -> MemProv2 = 30500
 c_order_vm_storage#180: aux_hard34 = 1 -> StorageProv2 = 3000
 lc182: aux_hard35 = 1 <-> vmType2 = 15
 c_order_vm_price#182: aux_hard35 = 1 -> PriceProv2 = 379
 c_order_vm_cpu#183: aux_hard35 = 1 -> ProcProv2 = 4
 c_order_vm_memory#184: aux_hard35 = 1 -> MemProv2 = 30500
 c_order_vm_storage#185: aux_hard35 = 1 -> StorageProv2 = 1000
 lc187: aux_hard36 = 1 <-> vmType2 = 16
 c_order_vm_price#187: aux_hard36 = 1 -> PriceProv2 = 146
 c_order_vm_cpu#188: aux_hard36 = 1 -> ProcProv2 = 2
 c_order_vm_memory#189: aux_hard36 = 1 -> MemProv2 = 7500
 c_order_vm_storage#190: aux_hard36 = 1 -> StorageProv2 = 1000
 lc192: aux_hard37 = 1 <-> vmType2 = 17
 c_order_vm_price#192: aux_hard37 = 1 -> PriceProv2 = 128
 c_order_vm_cpu#193: aux_hard37 = 1 -> ProcProv2 = 2
 c_order_vm_memory#194: aux_hard37 = 1 -> MemProv2 = 3750
 c_order_vm_storage#195: aux_hard37 = 1 -> StorageProv2 = 2000
 lc197: aux_hard38 = 1 <-> vmType2 = 18
 c_order_vm_price#197: aux_hard38 = 1 -> PriceProv2 = 58
 c_order_vm_cpu#198: aux_hard38 = 1 -> ProcProv2 = 1
 c_order_vm_memory#199: aux_hard38 = 1 -> MemProv2 = 1700
 c_order_vm_storage#200: aux_hard38 = 1 -> StorageProv2 = 1000
 lc202: aux_hard39 = 1 <-> vmType2 = 19
 c_order_vm_price#202: aux_hard39 = 1 -> PriceProv2 = 93
 c_order_vm_cpu#203: aux_hard39 = 1 -> ProcProv2 = 1
 c_order_vm_memory#204: aux_hard39 = 1 -> MemProv2 = 3750
 c_order_vm_storage#205: aux_hard39 = 1 -> StorageProv2 = 1000
 lc207: aux_hard40 = 1 <-> vmType2 = 20
 c_order_vm_price#207: aux_hard40 = 1 -> PriceProv2 = 98
 c_order_vm_cpu#208: aux_hard40 = 1 -> ProcProv2 = 1
 c_order_vm_memory#209: aux_hard40 = 1 -> MemProv2 = 3750
 c_order_vm_storage#210: aux_hard40 = 1 -> StorageProv2 = 1000
 lc212: vm2 = 1 -> vmType2 >= 1
 lc213: aux_hard41 = 1 <-> vmType3 = 1
 c_order_vm_price#213: aux_hard41 = 1 -> PriceProv3 = 8403
 c_order_vm_cpu#214: aux_hard41 = 1 -> ProcProv3 = 64
 c_order_vm_memory#215: aux_hard41 = 1 -> MemProv3 = 976000
 c_order_vm_storage#216: aux_hard41 = 1 -> StorageProv3 = 1000
 lc218: aux_hard42 = 1 <-> vmType3 = 2
 c_order_vm_price#218: aux_hard42 = 1 -> PriceProv3 = 9152
 c_order_vm_cpu#219: aux_hard42 = 1 -> ProcProv3 = 64
 c_order_vm_memory#220: aux_hard42 = 1 -> MemProv3 = 488000
 c_order_vm_storage#221: aux_hard42 = 1 -> StorageProv3 = 8000
 lc223: aux_hard43 = 1 <-> vmType3 = 3
 c_order_vm_price#223: aux_hard43 = 1 -> PriceProv3 = 16000
 c_order_vm_cpu#224: aux_hard43 = 1 -> ProcProv3 = 64
 c_order_vm_memory#225: aux_hard43 = 1 -> MemProv3 = 1952
 c_order_vm_storage#226: aux_hard43 = 1 -> StorageProv3 = 1000
 lc228: aux_hard44 = 1 <-> vmType3 = 4
 c_order_vm_price#228: aux_hard44 = 1 -> PriceProv3 = 4105
 c_order_vm_cpu#229: aux_hard44 = 1 -> ProcProv3 = 32
 c_order_vm_memory#230: aux_hard44 = 1 -> MemProv3 = 244000
 c_order_vm_storage#231: aux_hard44 = 1 -> StorageProv3 = 2000
 lc233: aux_hard45 = 1 <-> vmType3 = 5
 c_order_vm_price#233: aux_hard45 = 1 -> PriceProv3 = 4576
 c_order_vm_cpu#234: aux_hard45 = 1 -> ProcProv3 = 32
 c_order_vm_memory#235: aux_hard45 = 1 -> MemProv3 = 244000
 c_order_vm_storage#236: aux_hard45 = 1 -> StorageProv3 = 4000
 lc238: aux_hard46 = 1 <-> vmType3 = 6
 c_order_vm_price#238: aux_hard46 = 1 -> PriceProv3 = 1373
 c_order_vm_cpu#239: aux_hard46 = 1 -> ProcProv3 = 16
 c_order_vm_memory#240: aux_hard46 = 1 -> MemProv3 = 122000
 c_order_vm_storage#241: aux_hard46 = 1 -> StorageProv3 = 2000
 lc243: aux_hard47 = 1 <-> vmType3 = 7
 c_order_vm_price#243: aux_hard47 = 1 -> PriceProv3 = 1430
 c_order_vm_cpu#244: aux_hard47 = 1 -> ProcProv3 = 16
 c_order_vm_memory#245: aux_hard47 = 1 -> MemProv3 = 30000
 c_order_vm_storage#246: aux_hard47 = 1 -> StorageProv3 = 2000
 lc248: aux_hard48 = 1 <-> vmType3 = 8
 c_order_vm_price#248: aux_hard48 = 1 -> PriceProv3 = 5400
 c_order_vm_cpu#249: aux_hard48 = 1 -> ProcProv3 = 17
 c_order_vm_memory#250: aux_hard48 = 1 -> MemProv3 = 117000
 c_order_vm_storage#251: aux_hard48 = 1 -> StorageProv3 = 24000
 lc253: aux_hard49 = 1 <-> vmType3 = 9
 c_order_vm_price#253: aux_hard49 = 1 -> PriceProv3 = 3079
 c_order_vm_cpu#254: aux_hard49 = 1 -> ProcProv3 = 16
 c_order_vm_memory#255: aux_hard49 = 1 -> MemProv3 = 122000
 c_order_vm_storage#256: aux_hard49 = 1 -> StorageProv3 = 1000
 lc258: aux_hard50 = 1 <-> vmType3 = 10
 c_order_vm_price#258: aux_hard50 = 1 -> PriceProv3 = 1470
 c_order_vm_cpu#259: aux_hard50 = 1 -> ProcProv3 = 8
 c_order_vm_memory#260: aux_hard50 = 1 -> MemProv3 = 61000
 c_order_vm_storage#261: aux_hard50 = 1 -> StorageProv3 = 6000
 lc263: aux_hard51 = 1 <-> vmType3 = 11
 c_order_vm_price#263: aux_hard51 = 1 -> PriceProv3 = 1301
 c_order_vm_cpu#264: aux_hard51 = 1 -> ProcProv3 = 8
 c_order_vm_memory#265: aux_hard51 = 1 -> MemProv3 = 68400
 c_order_vm_storage#266: aux_hard51 = 1 -> StorageProv3 = 2000
 lc268: aux_hard52 = 1 <-> vmType3 = 12
 c_order_vm_price#268: aux_hard52 = 1 -> PriceProv3 = 1288
 c_order_vm_cpu#269: aux_hard52 = 1 -> ProcProv3 = 8
 c_order_vm_memory#270: aux_hard52 = 1 -> MemProv3 = 68400
 c_order_vm_storage#271: aux_hard52 = 1 -> StorageProv3 = 2000
 lc273: aux_hard53 = 1 <-> vmType3 = 13
 c_order_vm_price#273: aux_hard53 = 1 -> PriceProv3 = 402
 c_order_vm_cpu#274: aux_hard53 = 1 -> ProcProv3 = 4
 c_order_vm_memory#275: aux_hard53 = 1 -> MemProv3 = 15000
 c_order_vm_storage#276: aux_hard53 = 1 -> StorageProv3 = 2000
 lc278: aux_hard54 = 1 <-> vmType3 = 14
 c_order_vm_price#278: aux_hard54 = 1 -> PriceProv3 = 827
 c_order_vm_cpu#279: aux_hard54 = 1 -> ProcProv3 = 4
 c_order_vm_memory#280: aux_hard54 = 1 -> MemProv3 = 30500
 c_order_vm_storage#281: aux_hard54 = 1 -> StorageProv3 = 3000
 lc283: aux_hard55 = 1 <-> vmType3 = 15
 c_order_vm_price#283: aux_hard55 = 1 -> PriceProv3 = 379
 c_order_vm_cpu#284: aux_hard55 = 1 -> ProcProv3 = 4
 c_order_vm_memory#285: aux_hard55 = 1 -> MemProv3 = 30500
 c_order_vm_storage#286: aux_hard55 = 1 -> StorageProv3 = 1000
 lc288: aux_hard56 = 1 <-> vmType3 = 16
 c_order_vm_price#288: aux_hard56 = 1 -> PriceProv3 = 146
 c_order_vm_cpu#289: aux_hard56 = 1 -> ProcProv3 = 2
 c_order_vm_memory#290: aux_hard56 = 1 -> MemProv3 = 7500
 c_order_vm_storage#291: aux_hard56 = 1 -> StorageProv3 = 1000
 lc293: aux_hard57 = 1 <-> vmType3 = 17
 c_order_vm_price#293: aux_hard57 = 1 -> PriceProv3 = 128
 c_order_vm_cpu#294: aux_hard57 = 1 -> ProcProv3 = 2
 c_order_vm_memory#295: aux_hard57 = 1 -> MemProv3 = 3750
 c_order_vm_storage#296: aux_hard57 = 1 -> StorageProv3 = 2000
 lc298: aux_hard58 = 1 <-> vmType3 = 18
 c_order_vm_price#298: aux_hard58 = 1 -> PriceProv3 = 58
 c_order_vm_cpu#299: aux_hard58 = 1 -> ProcProv3 = 1
 c_order_vm_memory#300: aux_hard58 = 1 -> MemProv3 = 1700
 c_order_vm_storage#301: aux_hard58 = 1 -> StorageProv3 = 1000
 lc303: aux_hard59 = 1 <-> vmType3 = 19
 c_order_vm_price#303: aux_hard59 = 1 -> PriceProv3 = 93
 c_order_vm_cpu#304: aux_hard59 = 1 -> ProcProv3 = 1
 c_order_vm_memory#305: aux_hard59 = 1 -> MemProv3 = 3750
 c_order_vm_storage#306: aux_hard59 = 1 -> StorageProv3 = 1000
 lc308: aux_hard60 = 1 <-> vmType3 = 20
 c_order_vm_price#308: aux_hard60 = 1 -> PriceProv3 = 98
 c_order_vm_cpu#309: aux_hard60 = 1 -> ProcProv3 = 1
 c_order_vm_memory#310: aux_hard60 = 1 -> MemProv3 = 3750
 c_order_vm_storage#311: aux_hard60 = 1 -> StorageProv3 = 1000
 lc313: vm3 = 1 -> vmType3 >= 1
 lc314: aux_hard61 = 1 <-> vmType4 = 1
 c_order_vm_price#314: aux_hard61 = 1 -> PriceProv4 = 8403
 c_order_vm_cpu#315: aux_hard61 = 1 -> ProcProv4 = 64
 c_order_vm_memory#316: aux_hard61 = 1 -> MemProv4 = 976000
 c_order_vm_storage#317: aux_hard61 = 1 -> StorageProv4 = 1000
 lc319: aux_hard62 = 1 <-> vmType4 = 2
 c_order_vm_price#319: aux_hard62 = 1 -> PriceProv4 = 9152
 c_order_vm_cpu#320: aux_hard62 = 1 -> ProcProv4 = 64
 c_order_vm_memory#321: aux_hard62 = 1 -> MemProv4 = 488000
 c_order_vm_storage#322: aux_hard62 = 1 -> StorageProv4 = 8000
 lc324: aux_hard63 = 1 <-> vmType4 = 3
 c_order_vm_price#324: aux_hard63 = 1 -> PriceProv4 = 16000
 c_order_vm_cpu#325: aux_hard63 = 1 -> ProcProv4 = 64
 c_order_vm_memory#326: aux_hard63 = 1 -> MemProv4 = 1952
 c_order_vm_storage#327: aux_hard63 = 1 -> StorageProv4 = 1000
 lc329: aux_hard64 = 1 <-> vmType4 = 4
 c_order_vm_price#329: aux_hard64 = 1 -> PriceProv4 = 4105
 c_order_vm_cpu#330: aux_hard64 = 1 -> ProcProv4 = 32
 c_order_vm_memory#331: aux_hard64 = 1 -> MemProv4 = 244000
 c_order_vm_storage#332: aux_hard64 = 1 -> StorageProv4 = 2000
 lc334: aux_hard65 = 1 <-> vmType4 = 5
 c_order_vm_price#334: aux_hard65 = 1 -> PriceProv4 = 4576
 c_order_vm_cpu#335: aux_hard65 = 1 -> ProcProv4 = 32
 c_order_vm_memory#336: aux_hard65 = 1 -> MemProv4 = 244000
 c_order_vm_storage#337: aux_hard65 = 1 -> StorageProv4 = 4000
 lc339: aux_hard66 = 1 <-> vmType4 = 6
 c_order_vm_price#339: aux_hard66 = 1 -> PriceProv4 = 1373
 c_order_vm_cpu#340: aux_hard66 = 1 -> ProcProv4 = 16
 c_order_vm_memory#341: aux_hard66 = 1 -> MemProv4 = 122000
 c_order_vm_storage#342: aux_hard66 = 1 -> StorageProv4 = 2000
 lc344: aux_hard67 = 1 <-> vmType4 = 7
 c_order_vm_price#344: aux_hard67 = 1 -> PriceProv4 = 1430
 c_order_vm_cpu#345: aux_hard67 = 1 -> ProcProv4 = 16
 c_order_vm_memory#346: aux_hard67 = 1 -> MemProv4 = 30000
 c_order_vm_storage#347: aux_hard67 = 1 -> StorageProv4 = 2000
 lc349: aux_hard68 = 1 <-> vmType4 = 8
 c_order_vm_price#349: aux_hard68 = 1 -> PriceProv4 = 5400
 c_order_vm_cpu#350: aux_hard68 = 1 -> ProcProv4 = 17
 c_order_vm_memory#351: aux_hard68 = 1 -> MemProv4 = 117000
 c_order_vm_storage#352: aux_hard68 = 1 -> StorageProv4 = 24000
 lc354: aux_hard69 = 1 <-> vmType4 = 9
 c_order_vm_price#354: aux_hard69 = 1 -> PriceProv4 = 3079
 c_order_vm_cpu#355: aux_hard69 = 1 -> ProcProv4 = 16
 c_order_vm_memory#356: aux_hard69 = 1 -> MemProv4 = 122000
 c_order_vm_storage#357: aux_hard69 = 1 -> StorageProv4 = 1000
 lc359: aux_hard70 = 1 <-> vmType4 = 10
 c_order_vm_price#359: aux_hard70 = 1 -> PriceProv4 = 1470
 c_order_vm_cpu#360: aux_hard70 = 1 -> ProcProv4 = 8
 c_order_vm_memory#361: aux_hard70 = 1 -> MemProv4 = 61000
 c_order_vm_storage#362: aux_hard70 = 1 -> StorageProv4 = 6000
 lc364: aux_hard71 = 1 <-> vmType4 = 11
 c_order_vm_price#364: aux_hard71 = 1 -> PriceProv4 = 1301
 c_order_vm_cpu#365: aux_hard71 = 1 -> ProcProv4 = 8
 c_order_vm_memory#366: aux_hard71 = 1 -> MemProv4 = 68400
 c_order_vm_storage#367: aux_hard71 = 1 -> StorageProv4 = 2000
 lc369: aux_hard72 = 1 <-> vmType4 = 12
 c_order_vm_price#369: aux_hard72 = 1 -> PriceProv4 = 1288
 c_order_vm_cpu#370: aux_hard72 = 1 -> ProcProv4 = 8
 c_order_vm_memory#371: aux_hard72 = 1 -> MemProv4 = 68400
 c_order_vm_storage#372: aux_hard72 = 1 -> StorageProv4 = 2000
 lc374: aux_hard73 = 1 <-> vmType4 = 13
 c_order_vm_price#374: aux_hard73 = 1 -> PriceProv4 = 402
 c_order_vm_cpu#375: aux_hard73 = 1 -> ProcProv4 = 4
 c_order_vm_memory#376: aux_hard73 = 1 -> MemProv4 = 15000
 c_order_vm_storage#377: aux_hard73 = 1 -> StorageProv4 = 2000
 lc379: aux_hard74 = 1 <-> vmType4 = 14
 c_order_vm_price#379: aux_hard74 = 1 -> PriceProv4 = 827
 c_order_vm_cpu#380: aux_hard74 = 1 -> ProcProv4 = 4
 c_order_vm_memory#381: aux_hard74 = 1 -> MemProv4 = 30500
 c_order_vm_storage#382: aux_hard74 = 1 -> StorageProv4 = 3000
 lc384: aux_hard75 = 1 <-> vmType4 = 15
 c_order_vm_price#384: aux_hard75 = 1 -> PriceProv4 = 379
 c_order_vm_cpu#385: aux_hard75 = 1 -> ProcProv4 = 4
 c_order_vm_memory#386: aux_hard75 = 1 -> MemProv4 = 30500
 c_order_vm_storage#387: aux_hard75 = 1 -> StorageProv4 = 1000
 lc389: aux_hard76 = 1 <-> vmType4 = 16
 c_order_vm_price#389: aux_hard76 = 1 -> PriceProv4 = 146
 c_order_vm_cpu#390: aux_hard76 = 1 -> ProcProv4 = 2
 c_order_vm_memory#391: aux_hard76 = 1 -> MemProv4 = 7500
 c_order_vm_storage#392: aux_hard76 = 1 -> StorageProv4 = 1000
 lc394: aux_hard77 = 1 <-> vmType4 = 17
 c_order_vm_price#394: aux_hard77 = 1 -> PriceProv4 = 128
 c_order_vm_cpu#395: aux_hard77 = 1 -> ProcProv4 = 2
 c_order_vm_memory#396: aux_hard77 = 1 -> MemProv4 = 3750
 c_order_vm_storage#397: aux_hard77 = 1 -> StorageProv4 = 2000
 lc399: aux_hard78 = 1 <-> vmType4 = 18
 c_order_vm_price#399: aux_hard78 = 1 -> PriceProv4 = 58
 c_order_vm_cpu#400: aux_hard78 = 1 -> ProcProv4 = 1
 c_order_vm_memory#401: aux_hard78 = 1 -> MemProv4 = 1700
 c_order_vm_storage#402: aux_hard78 = 1 -> StorageProv4 = 1000
 lc404: aux_hard79 = 1 <-> vmType4 = 19
 c_order_vm_price#404: aux_hard79 = 1 -> PriceProv4 = 93
 c_order_vm_cpu#405: aux_hard79 = 1 -> ProcProv4 = 1
 c_order_vm_memory#406: aux_hard79 = 1 -> MemProv4 = 3750
 c_order_vm_storage#407: aux_hard79 = 1 -> StorageProv4 = 1000
 lc409: aux_hard80 = 1 <-> vmType4 = 20
 c_order_vm_price#409: aux_hard80 = 1 -> PriceProv4 = 98
 c_order_vm_cpu#410: aux_hard80 = 1 -> ProcProv4 = 1
 c_order_vm_memory#411: aux_hard80 = 1 -> MemProv4 = 3750
 c_order_vm_storage#412: aux_hard80 = 1 -> StorageProv4 = 1000
 lc414: vm4 = 1 -> vmType4 >= 1
 lc415: aux_hard81 = 1 <-> vmType5 = 1
 c_order_vm_price#415: aux_hard81 = 1 -> PriceProv5 = 8403
 c_order_vm_cpu#416: aux_hard81 = 1 -> ProcProv5 = 64
 c_order_vm_memory#417: aux_hard81 = 1 -> MemProv5 = 976000
 c_order_vm_storage#418: aux_hard81 = 1 -> StorageProv5 = 1000
 lc420: aux_hard82 = 1 <-> vmType5 = 2
 c_order_vm_price#420: aux_hard82 = 1 -> PriceProv5 = 9152
 c_order_vm_cpu#421: aux_hard82 = 1 -> ProcProv5 = 64
 c_order_vm_memory#422: aux_hard82 = 1 -> MemProv5 = 488000
 c_order_vm_storage#423: aux_hard82 = 1 -> StorageProv5 = 8000
 lc425: aux_hard83 = 1 <-> vmType5 = 3
 c_order_vm_price#425: aux_hard83 = 1 -> PriceProv5 = 16000
 c_order_vm_cpu#426: aux_hard83 = 1 -> ProcProv5 = 64
 c_order_vm_memory#427: aux_hard83 = 1 -> MemProv5 = 1952
 c_order_vm_storage#428: aux_hard83 = 1 -> StorageProv5 = 1000
 lc430: aux_hard84 = 1 <-> vmType5 = 4
 c_order_vm_price#430: aux_hard84 = 1 -> PriceProv5 = 4105
 c_order_vm_cpu#431: aux_hard84 = 1 -> ProcProv5 = 32
 c_order_vm_memory#432: aux_hard84 = 1 -> MemProv5 = 244000
 c_order_vm_storage#433: aux_hard84 = 1 -> StorageProv5 = 2000
 lc435: aux_hard85 = 1 <-> vmType5 = 5
 c_order_vm_price#435: aux_hard85 = 1 -> PriceProv5 = 4576
 c_order_vm_cpu#436: aux_hard85 = 1 -> ProcProv5 = 32
 c_order_vm_memory#437: aux_hard85 = 1 -> MemProv5 = 244000
 c_order_vm_storage#438: aux_hard85 = 1 -> StorageProv5 = 4000
 lc440: aux_hard86 = 1 <-> vmType5 = 6
 c_order_vm_price#440: aux_hard86 = 1 -> PriceProv5 = 1373
 c_order_vm_cpu#441: aux_hard86 = 1 -> ProcProv5 = 16
 c_order_vm_memory#442: aux_hard86 = 1 -> MemProv5 = 122000
 c_order_vm_storage#443: aux_hard86 = 1 -> StorageProv5 = 2000
 lc445: aux_hard87 = 1 <-> vmType5 = 7
 c_order_vm_price#445: aux_hard87 = 1 -> PriceProv5 = 1430
 c_order_vm_cpu#446: aux_hard87 = 1 -> ProcProv5 = 16
 c_order_vm_memory#447: aux_hard87 = 1 -> MemProv5 = 30000
 c_order_vm_storage#448: aux_hard87 = 1 -> StorageProv5 = 2000
 lc450: aux_hard88 = 1 <-> vmType5 = 8
 c_order_vm_price#450: aux_hard88 = 1 -> PriceProv5 = 5400
 c_order_vm_cpu#451: aux_hard88 = 1 -> ProcProv5 = 17
 c_order_vm_memory#452: aux_hard88 = 1 -> MemProv5 = 117000
 c_order_vm_storage#453: aux_hard88 = 1 -> StorageProv5 = 24000
 lc455: aux_hard89 = 1 <-> vmType5 = 9
 c_order_vm_price#455: aux_hard89 = 1 -> PriceProv5 = 3079
 c_order_vm_cpu#456: aux_hard89 = 1 -> ProcProv5 = 16
 c_order_vm_memory#457: aux_hard89 = 1 -> MemProv5 = 122000
 c_order_vm_storage#458: aux_hard89 = 1 -> StorageProv5 = 1000
 lc460: aux_hard90 = 1 <-> vmType5 = 10
 c_order_vm_price#460: aux_hard90 = 1 -> PriceProv5 = 1470
 c_order_vm_cpu#461: aux_hard90 = 1 -> ProcProv5 = 8
 c_order_vm_memory#462: aux_hard90 = 1 -> MemProv5 = 61000
 c_order_vm_storage#463: aux_hard90 = 1 -> StorageProv5 = 6000
 lc465: aux_hard91 = 1 <-> vmType5 = 11
 c_order_vm_price#465: aux_hard91 = 1 -> PriceProv5 = 1301
 c_order_vm_cpu#466: aux_hard91 = 1 -> ProcProv5 = 8
 c_order_vm_memory#467: aux_hard91 = 1 -> MemProv5 = 68400
 c_order_vm_storage#468: aux_hard91 = 1 -> StorageProv5 = 2000
 lc470: aux_hard92 = 1 <-> vmType5 = 12
 c_order_vm_price#470: aux_hard92 = 1 -> PriceProv5 = 1288
 c_order_vm_cpu#471: aux_hard92 = 1 -> ProcProv5 = 8
 c_order_vm_memory#472: aux_hard92 = 1 -> MemProv5 = 68400
 c_order_vm_storage#473: aux_hard92 = 1 -> StorageProv5 = 2000
 lc475: aux_hard93 = 1 <-> vmType5 = 13
 c_order_vm_price#475: aux_hard93 = 1 -> PriceProv5 = 402
 c_order_vm_cpu#476: aux_hard93 = 1 -> ProcProv5 = 4
 c_order_vm_memory#477: aux_hard93 = 1 -> MemProv5 = 15000
 c_order_vm_storage#478: aux_hard93 = 1 -> StorageProv5 = 2000
 lc480: aux_hard94 = 1 <-> vmType5 = 14
 c_order_vm_price#480: aux_hard94 = 1 -> PriceProv5 = 827
 c_order_vm_cpu#481: aux_hard94 = 1 -> ProcProv5 = 4
 c_order_vm_memory#482: aux_hard94 = 1 -> MemProv5 = 30500
 c_order_vm_storage#483: aux_hard94 = 1 -> StorageProv5 = 3000
 lc485: aux_hard95 = 1 <-> vmType5 = 15
 c_order_vm_price#485: aux_hard95 = 1 -> PriceProv5 = 379
 c_order_vm_cpu#486: aux_hard95 = 1 -> ProcProv5 = 4
 c_order_vm_memory#487: aux_hard95 = 1 -> MemProv5 = 30500
 c_order_vm_storage#488: aux_hard95 = 1 -> StorageProv5 = 1000
 lc490: aux_hard96 = 1 <-> vmType5 = 16
 c_order_vm_price#490: aux_hard96 = 1 -> PriceProv5 = 146
 c_order_vm_cpu#491: aux_hard96 = 1 -> ProcProv5 = 2
 c_order_vm_memory#492: aux_hard96 = 1 -> MemProv5 = 7500
 c_order_vm_storage#493: aux_hard96 = 1 -> StorageProv5 = 1000
 lc495: aux_hard97 = 1 <-> vmType5 = 17
 c_order_vm_price#495: aux_hard97 = 1 -> PriceProv5 = 128
 c_order_vm_cpu#496: aux_hard97 = 1 -> ProcProv5 = 2
 c_order_vm_memory#497: aux_hard97 = 1 -> MemProv5 = 3750
 c_order_vm_storage#498: aux_hard97 = 1 -> StorageProv5 = 2000
 lc500: aux_hard98 = 1 <-> vmType5 = 18
 c_order_vm_price#500: aux_hard98 = 1 -> PriceProv5 = 58
 c_order_vm_cpu#501: aux_hard98 = 1 -> ProcProv5 = 1
 c_order_vm_memory#502: aux_hard98 = 1 -> MemProv5 = 1700
 c_order_vm_storage#503: aux_hard98 = 1 -> StorageProv5 = 1000
 lc505: aux_hard99 = 1 <-> vmType5 = 19
 c_order_vm_price#505: aux_hard99 = 1 -> PriceProv5 = 93
 c_order_vm_cpu#506: aux_hard99 = 1 -> ProcProv5 = 1
 c_order_vm_memory#507: aux_hard99 = 1 -> MemProv5 = 3750
 c_order_vm_storage#508: aux_hard99 = 1 -> StorageProv5 = 1000
 lc510: aux_hard100 = 1 <-> vmType5 = 20
 c_order_vm_price#510: aux_hard100 = 1 -> PriceProv5 = 98
 c_order_vm_cpu#511: aux_hard100 = 1 -> ProcProv5 = 1
 c_order_vm_memory#512: aux_hard100 = 1 -> MemProv5 = 3750
 c_order_vm_storage#513: aux_hard100 = 1 -> StorageProv5 = 1000
 lc515: vm5 = 1 -> vmType5 >= 1

Bounds
 0 <= vm1 <= 1
 0 <= vm2 <= 1
 0 <= vm3 <= 1
 0 <= vm4 <= 1
 0 <= vm5 <= 1
 0 <= C1_VM1 <= 1
 0 <= C1_VM2 <= 1
 0 <= C1_VM3 <= 1
 0 <= C1_VM4 <= 1
 0 <= C1_VM5 <= 1
 0 <= C2_VM1 <= 1
 0 <= C2_VM2 <= 1
 0 <= C2_VM3 <= 1
 0 <= C2_VM4 <= 1
 0 <= C2_VM5 <= 1
 0 <= C3_VM1 <= 1
 0 <= C3_VM2 <= 1
 0 <= C3_VM3 <= 1
 0 <= C3_VM4 <= 1
 0 <= C3_VM5 <= 1
 0 <= C4_VM1 <= 1
 0 <= C4_VM2 <= 1
 0 <= C4_VM3 <= 1
 0 <= C4_VM4 <= 1
 0 <= C4_VM5 <= 1
 0 <= C5_VM1 <= 1
 0 <= C5_VM2 <= 1
 0 <= C5_VM3 <= 1
 0 <= C5_VM4 <= 1
 0 <= C5_VM5 <= 1
       vmType1 <= 20
       vmType2 <= 20
       vmType3 <= 20
       vmType4 <= 20
       vmType5 <= 20
 1 <= ProcProv1 <= 64
 1 <= ProcProv2 <= 64
 1 <= ProcProv3 <= 64
 1 <= ProcProv4 <= 64
 1 <= ProcProv5 <= 64
 1700 <= MemProv1 <= 976000
 1700 <= MemProv2 <= 976000
 1700 <= MemProv3 <= 976000
 1700 <= MemProv4 <= 976000
 1700 <= MemProv5 <= 976000
 1000 <= StorageProv1 <= 24000
 1000 <= StorageProv2 <= 24000
 1000 <= StorageProv3 <= 24000
 1000 <= StorageProv4 <= 24000
 1000 <= StorageProv5 <= 24000
       PriceProv1 <= 16000
       PriceProv2 <= 16000
       PriceProv3 <= 16000
       PriceProv4 <= 16000
       PriceProv5 <= 16000
 0 <= aux_hard1 <= 1
 0 <= aux_hard2 <= 1
 0 <= aux_hard3 <= 1
 0 <= aux_hard4 <= 1
 0 <= aux_hard5 <= 1
 0 <= aux_hard6 <= 1
 0 <= aux_hard7 <= 1
 0 <= aux_hard8 <= 1
 0 <= aux_hard9 <= 1
 0 <= aux_hard10 <= 1
 0 <= aux_hard11 <= 1
 0 <= aux_hard12 <= 1
 0 <= aux_hard13 <= 1
 0 <= aux_hard14 <= 1
 0 <= aux_hard15 <= 1
 0 <= aux_hard16 <= 1
 0 <= aux_hard17 <= 1
 0 <= aux_hard18 <= 1
 0 <= aux_hard19 <= 1
 0 <= aux_hard20 <= 1
 0 <= aux_hard21 <= 1
 0 <= aux_hard22 <= 1
 0 <= aux_hard23 <= 1
 0 <= aux_hard24 <= 1
 0 <= aux_hard25 <= 1
 0 <= aux_hard26 <= 1
 0 <= aux_hard27 <= 1
 0 <= aux_hard28 <= 1
 0 <= aux_hard29 <= 1
 0 <= aux_hard30 <= 1
 0 <= aux_hard31 <= 1
 0 <= aux_hard32 <= 1
 0 <= aux_hard33 <= 1
 0 <= aux_hard34 <= 1
 0 <= aux_hard35 <= 1
 0 <= aux_hard36 <= 1
 0 <= aux_hard37 <= 1
 0 <= aux_hard38 <= 1
 0 <= aux_hard39 <= 1
 0 <= aux_hard40 <= 1
 0 <= aux_hard41 <= 1
 0 <= aux_hard42 <= 1
 0 <= aux_hard43 <= 1
 0 <= aux_hard44 <= 1
 0 <= aux_hard45 <= 1
 0 <= aux_hard46 <= 1
 0 <= aux_hard47 <= 1
 0 <= aux_hard48 <= 1
 0 <= aux_hard49 <= 1
 0 <= aux_hard50 <= 1
 0 <= aux_hard51 <= 1
 0 <= aux_hard52 <= 1
 0 <= aux_hard53 <= 1
 0 <= aux_hard54 <= 1
 0 <= aux_hard55 <= 1
 0 <= aux_hard56 <= 1
 0 <= aux_hard57 <= 1
 0 <= aux_hard58 <= 1
 0 <= aux_hard59 <= 1
 0 <= aux_hard60 <= 1
 0 <= aux_hard61 <= 1
 0 <= aux_hard62 <= 1
 0 <= aux_hard63 <= 1
 0 <= aux_hard64 <= 1
 0 <= aux_hard65 <= 1
 0 <= aux_hard66 <= 1
 0 <= aux_hard67 <= 1
 0 <= aux_hard68 <= 1
 0 <= aux_hard69 <= 1
 0 <= aux_hard70 <= 1
 0 <= aux_hard71 <= 1
 0 <= aux_hard72 <= 1
 0 <= aux_hard73 <= 1
 0 <= aux_hard74 <= 1
 0 <= aux_hard75 <= 1
 0 <= aux_hard76 <= 1
 0 <= aux_hard77 <= 1
 0 <= aux_hard78 <= 1
 0 <= aux_hard79 <= 1
 0 <= aux_hard80 <= 1
 0 <= aux_hard81 <= 1
 0 <= aux_hard82 <= 1
 0 <= aux_hard83 <= 1
 0 <= aux_hard84 <= 1
 0 <= aux_hard85 <= 1
 0 <= aux_hard86 <= 1
 0 <= aux_hard87 <= 1
 0 <= aux_hard88 <= 1
 0 <= aux_hard89 <= 1
 0 <= aux_hard90 <= 1
 0 <= aux_hard91 <= 1
 0 <= aux_hard92 <= 1
 0 <= aux_hard93 <= 1
 0 <= aux_hard94 <= 1
 0 <= aux_hard95 <= 1
 0 <= aux_hard96 <= 1
 0 <= aux_hard97 <= 1
 0 <= aux_hard98 <= 1
 0 <= aux_hard99 <= 1
 0 <= aux_hard100 <= 1

Binaries
 vm1 vm2 vm3 vm4 vm5 C1_VM1 C1_VM2 C1_VM3 C1_VM4 C1_VM5 C2_VM1 C2_VM2 C2_VM3
 C2_VM4 C2_VM5 C3_VM1 C3_VM2 C3_VM3 C3_VM4 C3_VM5 C4_VM1 C4_VM2 C4_VM3 C4_VM4
 C4_VM5 C5_VM1 C5_VM2 C5_VM3 C5_VM4 C5_VM5 aux_hard1 aux_hard2 aux_hard3
 aux_hard4 aux_hard5 aux_hard6 aux_hard7 aux_hard8 aux_hard9 aux_hard10
 aux_hard11 aux_hard12 aux_hard13 aux_hard14 aux_hard15 aux_hard16 aux_hard17
 aux_hard18 aux_hard19 aux_hard20 aux_hard21 aux_hard22 aux_hard23 aux_hard24
 aux_hard25 aux_hard26 aux_hard27 aux_hard28 aux_hard29 aux_hard30 aux_hard31
 aux_hard32 aux_hard33 aux_hard34 aux_hard35 aux_hard36 aux_hard37 aux_hard38
 aux_hard39 aux_hard40 aux_hard41 aux_hard42 aux_hard43 aux_hard44 aux_hard45
 aux_hard46 aux_hard47 aux_hard48 aux_hard49 aux_hard50 aux_hard51 aux_hard52
 aux_hard53 aux_hard54 aux_hard55 aux_hard56 aux_hard57 aux_hard58 aux_hard59
 aux_hard60 aux_hard61 aux_hard62 aux_hard63 aux_hard64 aux_hard65 aux_hard66
 aux_hard67 aux_hard68 aux_hard69 aux_hard70 aux_hard71 aux_hard72 aux_hard73
 aux_hard74 aux_hard75 aux_hard76 aux_hard77 aux_hard78 aux_hard79 aux_hard80
 aux_hard81 aux_hard82 aux_hard83 aux_hard84 aux_hard85 aux_hard86 aux_hard87
 aux_hard88 aux_hard89 aux_hard90 aux_hard91 aux_hard92 aux_hard93 aux_hard94
 aux_hard95 aux_hard96 aux_hard97 aux_hard98 aux_hard99 aux_hard100

Generals
 vmType1 vmType2 vmType3 vmType4 vmType5 ProcProv1 ProcProv2 ProcProv3 ProcProv4
 ProcProv5 MemProv1 MemProv2 MemProv3 MemProv4 MemProv5 StorageProv1
 StorageProv2 StorageProv3 StorageProv4 StorageProv5 PriceProv1 PriceProv2
 PriceProv3 PriceProv4 PriceProv5
End
